WARNING: using JuMP.getdual in module Main conflicts with an existing identifier.
  [nonlinear] <nonlin>: (((-1.000000) * <_var0_>) + ((-1.000000) * <_var4_>) + ((-1.000000) * <_var8_>) + ((-1.000000) * <_var12_>) + ((-1.000000) * <_var16_>) + ((-1.000000) * <_var20_>)) <= -29;
violation: right hand side is violated by 29 (scaled: 29)
all 1 solutions given by solution candidate storage are infeasible

presolving:
(round 1, fast)       0 del vars, 0 del conss, 0 add conss, 0 chg bounds, 0 chg sides, 0 chg coeffs, 18003 upgd conss, 0 impls, 0 clqs
(round 2, fast)       0 del vars, 1523 del conss, 0 add conss, 31011 chg bounds, 0 chg sides, 0 chg coeffs, 18003 upgd conss, 0 impls, 0 clqs
(round 3, fast)       0 del vars, 1753 del conss, 0 add conss, 31011 chg bounds, 0 chg sides, 0 chg coeffs, 18003 upgd conss, 0 impls, 0 clqs
(round 4, exhaustive) 0 del vars, 9131 del conss, 0 add conss, 31011 chg bounds, 0 chg sides, 0 chg coeffs, 18003 upgd conss, 0 impls, 0 clqs
presolving (5 rounds: 5 fast, 2 medium, 2 exhaustive):
 0 deleted vars, 9131 deleted constraints, 0 added constraints, 31011 tightened bounds, 0 added holes, 0 changed sides, 0 changed coefficients
 0 implications, 0 cliques
presolved problem has 19006 variables (0 bin, 0 int, 0 impl, 19006 cont) and 8872 constraints
   8871 constraints of type <linear>
      1 constraints of type <quadratic>
Presolving Time: 360.80

  node  | left  |LP iter|LP it/n| mem |  dualbound   | primalbound  |  gap   
      1 |     0 | 13317 |     - |  96M| 1.387592e+07 |      --      |    Inf 

******************************************************************************
This program contains Ipopt, a library for large-scale nonlinear optimization.
 Ipopt is released as open source code under the Eclipse Public License (EPL).
         For more information visit http://projects.coin-or.org/Ipopt
******************************************************************************

q     1 |     0 | 13317 |     - |  96M| 1.387592e+07 | 1.468699e+07 |   5.85%
      1 |     0 | 13317 |     - |  96M| 1.387592e+07 | 1.468699e+07 |   5.85%
      1 |     0 | 13317 |     - |  96M| 1.387592e+07 | 1.468699e+07 |   5.85%
      1 |     0 |146487 |     - |  96M| 1.387592e+07 | 1.468699e+07 |   5.85%
      1 |     2 |146487 |     - |  96M| 1.387592e+07 | 1.468699e+07 |   5.85%
    100 |   101 |146830 |1348.6 | 192M| 1.387592e+07 | 1.468699e+07 |   5.85%
    200 |   201 |147085 | 672.2 | 282M| 1.387617e+07 | 1.468699e+07 |   5.84%
    300 |   301 |147296 | 448.1 | 373M| 1.387617e+07 | 1.468699e+07 |   5.84%
    400 |   401 |147545 | 336.4 | 482M| 1.387641e+07 | 1.468699e+07 |   5.84%
    500 |   501 |147819 | 269.5 | 571M| 1.387641e+07 | 1.468699e+07 |   5.84%
    600 |   601 |148101 | 225.0 | 667M| 1.387695e+07 | 1.468699e+07 |   5.84%
    700 |   701 |148360 | 193.2 | 776M| 1.387718e+07 | 1.468699e+07 |   5.84%
    800 |   801 |148623 | 169.3 | 829M| 1.387720e+07 | 1.468699e+07 |   5.84%
    900 |   901 |148880 | 150.8 | 944M| 1.387742e+07 | 1.468699e+07 |   5.83%
  node  | left  |LP iter|LP it/n| mem |  dualbound   | primalbound  |  gap   
   1000 |  1001 |149142 | 136.0 |1072M| 1.387744e+07 | 1.468699e+07 |   5.83%
   1100 |  1101 |149397 | 123.8 |1126M| 1.387744e+07 | 1.468699e+07 |   5.83%
   1200 |  1201 |149661 | 113.7 |1268M| 1.387745e+07 | 1.468699e+07 |   5.83%
   1300 |  1301 |149919 | 105.2 |1322M| 1.387747e+07 | 1.468699e+07 |   5.83%
   1400 |  1401 |150175 |  97.8 |1483M| 1.387747e+07 | 1.468699e+07 |   5.83%
   1500 |  1501 |150444 |  91.5 |1536M| 1.387748e+07 | 1.468699e+07 |   5.83%
   1600 |  1601 |150710 |  85.9 |1589M| 1.387748e+07 | 1.468699e+07 |   5.83%
   1700 |  1701 |150969 |  81.0 |1772M| 1.387751e+07 | 1.468699e+07 |   5.83%
   1800 |  1801 |151228 |  76.7 |1825M| 1.387752e+07 | 1.468699e+07 |   5.83%
   1900 |  1901 |151492 |  72.8 |1878M| 1.387753e+07 | 1.468699e+07 |   5.83%
   2000 |  2001 |151756 |  69.3 |1931M| 1.387765e+07 | 1.468699e+07 |   5.83%
   2100 |  2101 |152028 |  66.1 |2139M| 1.387765e+07 | 1.468699e+07 |   5.83%
   2200 |  2201 |152299 |  63.2 |2192M| 1.387765e+07 | 1.468699e+07 |   5.83%
   2300 |  2301 |152570 |  60.6 |2245M| 1.387765e+07 | 1.468699e+07 |   5.83%
   2400 |  2401 |152839 |  58.2 |2298M| 1.387767e+07 | 1.468699e+07 |   5.83%
  node  | left  |LP iter|LP it/n| mem |  dualbound   | primalbound  |  gap   
   2500 |  2501 |153105 |  55.9 |2538M| 1.387769e+07 | 1.468699e+07 |   5.83%
   2600 |  2601 |153374 |  53.9 |2591M| 1.387769e+07 | 1.468699e+07 |   5.83%
   2700 |  2701 |153653 |  52.0 |2644M| 1.387770e+07 | 1.468699e+07 |   5.83%
   2800 |  2801 |153913 |  50.2 |2697M| 1.387771e+07 | 1.468699e+07 |   5.83%
   2900 |  2901 |154183 |  48.6 |2750M| 1.387773e+07 | 1.468699e+07 |   5.83%
   3000 |  3001 |154463 |  47.1 |3027M| 1.387774e+07 | 1.468699e+07 |   5.83%
   3100 |  3101 |154739 |  45.6 |3080M| 1.387778e+07 | 1.468699e+07 |   5.83%
   3200 |  3201 |155014 |  44.3 |3133M| 1.387789e+07 | 1.468699e+07 |   5.83%
   3300 |  3301 |155292 |  43.0 |3186M| 1.387789e+07 | 1.468699e+07 |   5.83%
   3400 |  3401 |155575 |  41.9 |3240M| 1.387789e+07 | 1.468699e+07 |   5.83%
   3500 |  3501 |155850 |  40.7 |3293M| 1.387790e+07 | 1.468699e+07 |   5.83%
   3600 |  3601 |156118 |  39.7 |3613M| 1.387791e+07 | 1.468699e+07 |   5.83%
   3700 |  3701 |156403 |  38.7 |3667M| 1.387791e+07 | 1.468699e+07 |   5.83%
   3800 |  3801 |156682 |  37.7 |3720M| 1.387793e+07 | 1.468699e+07 |   5.83%
   3900 |  3901 |156966 |  36.8 |3773M| 1.387794e+07 | 1.468699e+07 |   5.83%
  node  | left  |LP iter|LP it/n| mem |  dualbound   | primalbound  |  gap   
   4000 |  4001 |157247 |  36.0 |3826M| 1.387795e+07 | 1.468699e+07 |   5.83%
   4100 |  4101 |157531 |  35.2 |3879M| 1.387796e+07 | 1.468699e+07 |   5.83%
   4200 |  4201 |157808 |  34.4 |3932M| 1.387797e+07 | 1.468699e+07 |   5.83%
   4300 |  4301 |158095 |  33.7 |4307M| 1.387798e+07 | 1.468699e+07 |   5.83%
   4400 |  4401 |158397 |  33.0 |4360M| 1.387798e+07 | 1.468699e+07 |   5.83%
   4500 |  4501 |158679 |  32.3 |4413M| 1.387799e+07 | 1.468699e+07 |   5.83%
   4600 |  4601 |158958 |  31.7 |4466M| 1.387803e+07 | 1.468699e+07 |   5.83%
   4700 |  4701 |159243 |  31.1 |4521M| 1.387815e+07 | 1.468699e+07 |   5.83%
   4800 |  4801 |159537 |  30.5 |4574M| 1.387815e+07 | 1.468699e+07 |   5.83%
   4900 |  4901 |159816 |  29.9 |4627M| 1.387815e+07 | 1.468699e+07 |   5.83%
   5000 |  5001 |160105 |  29.4 |4680M| 1.387816e+07 | 1.468699e+07 |   5.83%
   5100 |  5101 |160381 |  28.8 |5119M| 1.387817e+07 | 1.468699e+07 |   5.83%
   5200 |  5201 |160681 |  28.3 |5172M| 1.387818e+07 | 1.468699e+07 |   5.83%
   5300 |  5301 |160972 |  27.9 |5225M| 1.387818e+07 | 1.468699e+07 |   5.83%
   5400 |  5401 |161254 |  27.4 |5278M| 1.387819e+07 | 1.468699e+07 |   5.83%
  node  | left  |LP iter|LP it/n| mem |  dualbound   | primalbound  |  gap   
   5500 |  5501 |161533 |  27.0 |5331M| 1.387820e+07 | 1.468699e+07 |   5.83%
   5600 |  5601 |161830 |  26.5 |5384M| 1.387820e+07 | 1.468699e+07 |   5.83%
   5700 |  5701 |162108 |  26.1 |5437M| 1.387821e+07 | 1.468699e+07 |   5.83%
   5800 |  5801 |162388 |  25.7 |5491M| 1.387821e+07 | 1.468699e+07 |   5.83%
   5900 |  5901 |162685 |  25.3 |5544M| 1.387822e+07 | 1.468699e+07 |   5.83%
   6000 |  6001 |162953 |  24.9 |5597M| 1.387823e+07 | 1.468699e+07 |   5.83%
   6100 |  6101 |163228 |  24.6 |6113M| 1.387823e+07 | 1.468699e+07 |   5.83%
   6200 |  6201 |163517 |  24.2 |6166M| 1.387824e+07 | 1.468699e+07 |   5.83%
   6300 |  6301 |163804 |  23.9 |6219M| 1.387824e+07 | 1.468699e+07 |   5.83%
   6400 |  6401 |164088 |  23.6 |6272M| 1.387827e+07 | 1.468699e+07 |   5.83%
   6500 |  6501 |164371 |  23.2 |6325M| 1.387828e+07 | 1.468699e+07 |   5.83%
   6600 |  6601 |164649 |  22.9 |6378M| 1.387828e+07 | 1.468699e+07 |   5.83%
   6700 |  6701 |164942 |  22.6 |6431M| 1.387828e+07 | 1.468699e+07 |   5.83%
   6800 |  6801 |165221 |  22.3 |6484M| 1.387831e+07 | 1.468699e+07 |   5.83%
   6900 |  6901 |165508 |  22.1 |6538M| 1.387838e+07 | 1.468699e+07 |   5.83%
  node  | left  |LP iter|LP it/n| mem |  dualbound   | primalbound  |  gap   
   7000 |  7001 |165796 |  21.8 |6591M| 1.387839e+07 | 1.468699e+07 |   5.83%
   7100 |  7101 |166072 |  21.5 |6644M| 1.387841e+07 | 1.468699e+07 |   5.83%
   7200 |  7201 |166345 |  21.3 |6697M| 1.387841e+07 | 1.468699e+07 |   5.83%
   7300 |  7301 |166629 |  21.0 |7306M| 1.387841e+07 | 1.468699e+07 |   5.83%
   7400 |  7401 |166916 |  20.8 |7359M| 1.387842e+07 | 1.468699e+07 |   5.83%
   7500 |  7501 |167202 |  20.5 |7412M| 1.387843e+07 | 1.468699e+07 |   5.83%
   7600 |  7601 |167484 |  20.3 |7465M| 1.387844e+07 | 1.468699e+07 |   5.83%
   7700 |  7701 |167777 |  20.1 |7518M| 1.387844e+07 | 1.468699e+07 |   5.83%
   7800 |  7801 |168035 |  19.8 |7571M| 1.387844e+07 | 1.468699e+07 |   5.83%
   7900 |  7901 |168305 |  19.6 |7624M| 1.387844e+07 | 1.468699e+07 |   5.83%
   8000 |  8001 |168575 |  19.4 |7678M| 1.387845e+07 | 1.468699e+07 |   5.83%
   8100 |  8101 |168839 |  19.2 |7731M| 1.387845e+07 | 1.468699e+07 |   5.83%
   8200 |  8201 |169116 |  19.0 |7784M| 1.387846e+07 | 1.468699e+07 |   5.83%
   8300 |  8301 |169383 |  18.8 |7837M| 1.387846e+07 | 1.468699e+07 |   5.83%
   8400 |  8401 |169644 |  18.6 |7890M| 1.387846e+07 | 1.468699e+07 |   5.83%
  node  | left  |LP iter|LP it/n| mem |  dualbound   | primalbound  |  gap   
   8500 |  8501 |169912 |  18.4 |7943M| 1.387847e+07 | 1.468699e+07 |   5.83%
   8600 |  8601 |170174 |  18.2 |7996M| 1.387847e+07 | 1.468699e+07 |   5.83%
   8700 |  8701 |170436 |  18.1 |8049M| 1.387848e+07 | 1.468699e+07 |   5.83%
   8800 |  8801 |170708 |  17.9 |8769M| 1.387849e+07 | 1.468699e+07 |   5.83%
   8900 |  8901 |170955 |  17.7 |8822M| 1.387849e+07 | 1.468699e+07 |   5.83%
   9000 |  9001 |171237 |  17.5 |8875M| 1.387849e+07 | 1.468699e+07 |   5.83%
   9100 |  9101 |171508 |  17.4 |8928M| 1.387850e+07 | 1.468699e+07 |   5.83%
   9200 |  9201 |171771 |  17.2 |8981M| 1.387851e+07 | 1.468699e+07 |   5.83%
   9300 |  9301 |172046 |  17.1 |9034M| 1.387851e+07 | 1.468699e+07 |   5.83%
   9400 |  9401 |172300 |  16.9 |9088M| 1.387852e+07 | 1.468699e+07 |   5.83%
   9500 |  9501 |172573 |  16.8 |9141M| 1.387852e+07 | 1.468699e+07 |   5.83%
   9600 |  9601 |172838 |  16.6 |9194M| 1.387853e+07 | 1.468699e+07 |   5.83%
   9700 |  9701 |173086 |  16.5 |9247M| 1.387853e+07 | 1.468699e+07 |   5.83%
   9800 |  9801 |173359 |  16.3 |9300M| 1.387853e+07 | 1.468699e+07 |   5.83%
   9900 |  9901 |173602 |  16.2 |9353M| 1.387854e+07 | 1.468699e+07 |   5.83%
  node  | left  |LP iter|LP it/n| mem |  dualbound   | primalbound  |  gap   
  10000 | 10001 |173852 |  16.1 |9406M| 1.387854e+07 | 1.468699e+07 |   5.83%
  10100 | 10101 |174095 |  15.9 |9459M| 1.387856e+07 | 1.468699e+07 |   5.83%
  10200 | 10201 |174339 |  15.8 |9513M| 1.387864e+07 | 1.468699e+07 |   5.82%
  10300 | 10301 |174594 |  15.7 |9567M| 1.387864e+07 | 1.468699e+07 |   5.82%
  10400 | 10401 |174855 |  15.5 |9620M| 1.387864e+07 | 1.468699e+07 |   5.82%
  10500 | 10501 |175102 |  15.4 |9673M| 1.387864e+07 | 1.468699e+07 |   5.82%
  10600 | 10601 |175371 |  15.3 |  10G| 1.387865e+07 | 1.468699e+07 |   5.82%
  10700 | 10701 |175632 |  15.2 |  10G| 1.387866e+07 | 1.468699e+07 |   5.82%
  10800 | 10801 |175893 |  15.1 |  10G| 1.387866e+07 | 1.468699e+07 |   5.82%
  10900 | 10901 |176160 |  14.9 |  10G| 1.387866e+07 | 1.468699e+07 |   5.82%
  11000 | 11001 |176415 |  14.8 |  10G| 1.387866e+07 | 1.468699e+07 |   5.82%
  11100 | 11101 |176672 |  14.7 |  10G| 1.387867e+07 | 1.468699e+07 |   5.82%
  11200 | 11201 |176925 |  14.6 |  10G| 1.387868e+07 | 1.468699e+07 |   5.82%
  11300 | 11301 |177187 |  14.5 |  10G| 1.387868e+07 | 1.468699e+07 |   5.82%
  11400 | 11401 |177448 |  14.4 |  10G| 1.387868e+07 | 1.468699e+07 |   5.82%
  node  | left  |LP iter|LP it/n| mem |  dualbound   | primalbound  |  gap   
  11500 | 11501 |177716 |  14.3 |  11G| 1.387868e+07 | 1.468699e+07 |   5.82%
  11600 | 11601 |177963 |  14.2 |  11G| 1.387868e+07 | 1.468699e+07 |   5.82%
  11700 | 11701 |178214 |  14.1 |  11G| 1.387868e+07 | 1.468699e+07 |   5.82%
  11800 | 11801 |178462 |  14.0 |  11G| 1.387869e+07 | 1.468699e+07 |   5.82%
  11900 | 11901 |178706 |  13.9 |  11G| 1.387869e+07 | 1.468699e+07 |   5.82%
  12000 | 12001 |178941 |  13.8 |  11G| 1.387869e+07 | 1.468699e+07 |   5.82%
  12100 | 12101 |179176 |  13.7 |  11G| 1.387869e+07 | 1.468699e+07 |   5.82%
  12200 | 12201 |179407 |  13.6 |  11G| 1.387870e+07 | 1.468699e+07 |   5.82%
  12300 | 12301 |179647 |  13.5 |  11G| 1.387870e+07 | 1.468699e+07 |   5.82%
  12400 | 12401 |179887 |  13.4 |  11G| 1.387870e+07 | 1.468699e+07 |   5.82%
  12500 | 12501 |180129 |  13.3 |  11G| 1.387870e+07 | 1.468699e+07 |   5.82%
  12600 | 12601 |180364 |  13.3 |  11G| 1.387870e+07 | 1.468699e+07 |   5.82%
  12700 | 12701 |180609 |  13.2 |  12G| 1.387870e+07 | 1.468699e+07 |   5.82%
  12800 | 12801 |180842 |  13.1 |  12G| 1.387871e+07 | 1.468699e+07 |   5.82%
  12900 | 12901 |181075 |  13.0 |  12G| 1.387871e+07 | 1.468699e+07 |   5.82%
  node  | left  |LP iter|LP it/n| mem |  dualbound   | primalbound  |  gap   
  13000 | 13001 |181304 |  12.9 |  12G| 1.387871e+07 | 1.468699e+07 |   5.82%
  13100 | 13101 |181541 |  12.8 |  12G| 1.387871e+07 | 1.468699e+07 |   5.82%
  13200 | 13201 |181780 |  12.8 |  12G| 1.387871e+07 | 1.468699e+07 |   5.82%
  13300 | 13301 |182008 |  12.7 |  12G| 1.387871e+07 | 1.468699e+07 |   5.82%
  13400 | 13401 |182244 |  12.6 |  12G| 1.387871e+07 | 1.468699e+07 |   5.82%
  13500 | 13501 |182474 |  12.5 |  13G| 1.387872e+07 | 1.468699e+07 |   5.82%
  13600 | 13601 |182714 |  12.5 |  13G| 1.387872e+07 | 1.468699e+07 |   5.82%
  13700 | 13701 |182945 |  12.4 |  13G| 1.387872e+07 | 1.468699e+07 |   5.82%
  13800 | 13801 |183166 |  12.3 |  13G| 1.387873e+07 | 1.468699e+07 |   5.82%
  13900 | 13901 |183397 |  12.2 |  13G| 1.387873e+07 | 1.468699e+07 |   5.82%
  14000 | 14001 |183622 |  12.2 |  13G| 1.387873e+07 | 1.468699e+07 |   5.82%
  14100 | 14101 |183849 |  12.1 |  13G| 1.387873e+07 | 1.468699e+07 |   5.82%
  14200 | 14201 |184077 |  12.0 |  13G| 1.387874e+07 | 1.468699e+07 |   5.82%
  14300 | 14301 |184306 |  12.0 |  13G| 1.387874e+07 | 1.468699e+07 |   5.82%
  14400 | 14401 |184533 |  11.9 |  13G| 1.387874e+07 | 1.468699e+07 |   5.82%
  node  | left  |LP iter|LP it/n| mem |  dualbound   | primalbound  |  gap   
  14500 | 14501 |184763 |  11.8 |  13G| 1.387874e+07 | 1.468699e+07 |   5.82%
  14600 | 14601 |184993 |  11.8 |  13G| 1.387875e+07 | 1.468699e+07 |   5.82%
  14700 | 14701 |185230 |  11.7 |  13G| 1.387875e+07 | 1.468699e+07 |   5.82%
  14800 | 14801 |185458 |  11.6 |  13G| 1.387875e+07 | 1.468699e+07 |   5.82%
  14900 | 14901 |185683 |  11.6 |  13G| 1.387876e+07 | 1.468699e+07 |   5.82%
  15000 | 15001 |185905 |  11.5 |  13G| 1.387877e+07 | 1.468699e+07 |   5.82%
  15100 | 15101 |186132 |  11.4 |  13G| 1.387877e+07 | 1.468699e+07 |   5.82%
  15200 | 15201 |186372 |  11.4 |  15G| 1.387878e+07 | 1.468699e+07 |   5.82%
  15300 | 15301 |186608 |  11.3 |  15G| 1.387878e+07 | 1.468699e+07 |   5.82%
  15400 | 15401 |186861 |  11.3 |  15G| 1.387878e+07 | 1.468699e+07 |   5.82%
  15500 | 15501 |187099 |  11.2 |  15G| 1.387879e+07 | 1.468699e+07 |   5.82%
  15600 | 15601 |187334 |  11.2 |  15G| 1.387879e+07 | 1.468699e+07 |   5.82%
  15700 | 15701 |187578 |  11.1 |  15G| 1.387879e+07 | 1.468699e+07 |   5.82%
  15800 | 15801 |187812 |  11.0 |  15G| 1.387880e+07 | 1.468699e+07 |   5.82%
  15900 | 15901 |188045 |  11.0 |  15G| 1.387882e+07 | 1.468699e+07 |   5.82%
  node  | left  |LP iter|LP it/n| mem |  dualbound   | primalbound  |  gap   
  16000 | 16001 |188290 |  10.9 |  15G| 1.387889e+07 | 1.468699e+07 |   5.82%
  16100 | 16101 |188548 |  10.9 |  15G| 1.387889e+07 | 1.468699e+07 |   5.82%
  16200 | 16201 |188787 |  10.8 |  15G| 1.387890e+07 | 1.468699e+07 |   5.82%
  16300 | 16301 |189033 |  10.8 |  15G| 1.387890e+07 | 1.468699e+07 |   5.82%
  16400 | 16401 |189267 |  10.7 |  15G| 1.387890e+07 | 1.468699e+07 |   5.82%
  16500 | 16501 |189518 |  10.7 |  15G| 1.387890e+07 | 1.468699e+07 |   5.82%
  16600 | 16601 |189775 |  10.6 |  15G| 1.387890e+07 | 1.468699e+07 |   5.82%
  16700 | 16701 |190015 |  10.6 |  15G| 1.387890e+07 | 1.468699e+07 |   5.82%
  16800 | 16801 |190256 |  10.5 |  15G| 1.387891e+07 | 1.468699e+07 |   5.82%
  16900 | 16901 |190494 |  10.5 |  15G| 1.387891e+07 | 1.468699e+07 |   5.82%
  17000 | 17001 |190740 |  10.4 |  16G| 1.387891e+07 | 1.468699e+07 |   5.82%
  17100 | 17101 |190966 |  10.4 |  16G| 1.387892e+07 | 1.468699e+07 |   5.82%
  17200 | 17201 |191184 |  10.3 |  16G| 1.387892e+07 | 1.468699e+07 |   5.82%
  17300 | 17301 |191408 |  10.3 |  16G| 1.387892e+07 | 1.468699e+07 |   5.82%
  17400 | 17401 |191640 |  10.2 |  16G| 1.387892e+07 | 1.468699e+07 |   5.82%
  node  | left  |LP iter|LP it/n| mem |  dualbound   | primalbound  |  gap   
  17500 | 17501 |191882 |  10.2 |  16G| 1.387892e+07 | 1.468699e+07 |   5.82%
  17600 | 17601 |192120 |  10.2 |  16G| 1.387893e+07 | 1.468699e+07 |   5.82%
  17700 | 17701 |192370 |  10.1 |  16G| 1.387893e+07 | 1.468699e+07 |   5.82%
  17800 | 17801 |192603 |  10.1 |  16G| 1.387893e+07 | 1.468699e+07 |   5.82%
  17900 | 17901 |192840 |  10.0 |  16G| 1.387893e+07 | 1.468699e+07 |   5.82%
  18000 | 18001 |193077 |  10.0 |  16G| 1.387893e+07 | 1.468699e+07 |   5.82%
  18100 | 18101 |193320 |   9.9 |  16G| 1.387894e+07 | 1.468699e+07 |   5.82%
  18200 | 18201 |193561 |   9.9 |  18G| 1.387894e+07 | 1.468699e+07 |   5.82%
  18300 | 18301 |193797 |   9.9 |  18G| 1.387894e+07 | 1.468699e+07 |   5.82%
  18400 | 18401 |194036 |   9.8 |  18G| 1.387894e+07 | 1.468699e+07 |   5.82%
  18500 | 18501 |194273 |   9.8 |  18G| 1.387894e+07 | 1.468699e+07 |   5.82%
  18600 | 18601 |194510 |   9.7 |  18G| 1.387894e+07 | 1.468699e+07 |   5.82%
  18700 | 18701 |194750 |   9.7 |  18G| 1.387895e+07 | 1.468699e+07 |   5.82%
  18800 | 18801 |195002 |   9.7 |  18G| 1.387895e+07 | 1.468699e+07 |   5.82%
  18900 | 18901 |195243 |   9.6 |  18G| 1.387895e+07 | 1.468699e+07 |   5.82%
  node  | left  |LP iter|LP it/n| mem |  dualbound   | primalbound  |  gap   
  19000 | 19001 |195483 |   9.6 |  18G| 1.387895e+07 | 1.468699e+07 |   5.82%
  19100 | 19101 |195727 |   9.6 |  18G| 1.387895e+07 | 1.468699e+07 |   5.82%
  19200 | 19201 |195966 |   9.5 |  18G| 1.387895e+07 | 1.468699e+07 |   5.82%
  19300 | 19301 |196194 |   9.5 |  18G| 1.387895e+07 | 1.468699e+07 |   5.82%
  19400 | 19401 |196433 |   9.4 |  18G| 1.387895e+07 | 1.468699e+07 |   5.82%
  19500 | 19501 |196663 |   9.4 |  18G| 1.387896e+07 | 1.468699e+07 |   5.82%
  19600 | 19601 |196901 |   9.4 |  18G| 1.387896e+07 | 1.468699e+07 |   5.82%
  19700 | 19701 |197134 |   9.3 |  18G| 1.387896e+07 | 1.468699e+07 |   5.82%
  19800 | 19801 |197368 |   9.3 |  18G| 1.387896e+07 | 1.468699e+07 |   5.82%
  19900 | 19901 |197594 |   9.3 |  18G| 1.387896e+07 | 1.468699e+07 |   5.82%
  20000 | 20001 |197838 |   9.2 |  19G| 1.387896e+07 | 1.468699e+07 |   5.82%
  20100 | 20101 |198078 |   9.2 |  19G| 1.387897e+07 | 1.468699e+07 |   5.82%
  20200 | 20201 |198318 |   9.2 |  19G| 1.387897e+07 | 1.468699e+07 |   5.82%
  20300 | 20301 |198545 |   9.1 |  19G| 1.387897e+07 | 1.468699e+07 |   5.82%
  20400 | 20401 |198785 |   9.1 |  19G| 1.387897e+07 | 1.468699e+07 |   5.82%
  node  | left  |LP iter|LP it/n| mem |  dualbound   | primalbound  |  gap   
  20500 | 20501 |199002 |   9.1 |  19G| 1.387897e+07 | 1.468699e+07 |   5.82%
  20600 | 20601 |199234 |   9.0 |  19G| 1.387898e+07 | 1.468699e+07 |   5.82%
  20700 | 20701 |199447 |   9.0 |  19G| 1.387899e+07 | 1.468699e+07 |   5.82%
  20800 | 20801 |199682 |   9.0 |  19G| 1.387899e+07 | 1.468699e+07 |   5.82%
  20900 | 20901 |199897 |   8.9 |  19G| 1.387899e+07 | 1.468699e+07 |   5.82%
  21000 | 21001 |200124 |   8.9 |  19G| 1.387899e+07 | 1.468699e+07 |   5.82%
  21100 | 21101 |200338 |   8.9 |  19G| 1.387899e+07 | 1.468699e+07 |   5.82%
  21200 | 21201 |200569 |   8.8 |  19G| 1.387899e+07 | 1.468699e+07 |   5.82%
  21300 | 21301 |200791 |   8.8 |  19G| 1.387900e+07 | 1.468699e+07 |   5.82%
  21400 | 21401 |201027 |   8.8 |  19G| 1.387900e+07 | 1.468699e+07 |   5.82%
  21500 | 21501 |201242 |   8.7 |  19G| 1.387900e+07 | 1.468699e+07 |   5.82%
  21600 | 21601 |201470 |   8.7 |  19G| 1.387901e+07 | 1.468699e+07 |   5.82%
  21700 | 21701 |201695 |   8.7 |  19G| 1.387901e+07 | 1.468699e+07 |   5.82%
  21800 | 21801 |201928 |   8.7 |  19G| 1.387901e+07 | 1.468699e+07 |   5.82%
  21900 | 21901 |202145 |   8.6 |  21G| 1.387902e+07 | 1.468699e+07 |   5.82%
  node  | left  |LP iter|LP it/n| mem |  dualbound   | primalbound  |  gap   
  22000 | 22001 |202373 |   8.6 |  21G| 1.387902e+07 | 1.468699e+07 |   5.82%
  22100 | 22101 |202586 |   8.6 |  21G| 1.387902e+07 | 1.468699e+07 |   5.82%
  22200 | 22201 |202821 |   8.5 |  21G| 1.387902e+07 | 1.468699e+07 |   5.82%
  22300 | 22301 |203035 |   8.5 |  21G| 1.387903e+07 | 1.468699e+07 |   5.82%
  22400 | 22401 |203264 |   8.5 |  21G| 1.387903e+07 | 1.468699e+07 |   5.82%
  22500 | 22501 |203491 |   8.5 |  22G| 1.387903e+07 | 1.468699e+07 |   5.82%
  22600 | 22601 |203724 |   8.4 |  22G| 1.387903e+07 | 1.468699e+07 |   5.82%
  22700 | 22701 |203955 |   8.4 |  22G| 1.387903e+07 | 1.468699e+07 |   5.82%
  22800 | 22801 |204181 |   8.4 |  22G| 1.387903e+07 | 1.468699e+07 |   5.82%
  22900 | 22901 |204406 |   8.3 |  22G| 1.387903e+07 | 1.468699e+07 |   5.82%
  23000 | 23001 |204641 |   8.3 |  22G| 1.387903e+07 | 1.468699e+07 |   5.82%
  23100 | 23101 |204867 |   8.3 |  22G| 1.387904e+07 | 1.468699e+07 |   5.82%
  23200 | 23201 |205094 |   8.3 |  22G| 1.387904e+07 | 1.468699e+07 |   5.82%
  23300 | 23301 |205331 |   8.2 |  22G| 1.387904e+07 | 1.468699e+07 |   5.82%
  23400 | 23401 |205567 |   8.2 |  22G| 1.387904e+07 | 1.468699e+07 |   5.82%
  node  | left  |LP iter|LP it/n| mem |  dualbound   | primalbound  |  gap   
  23500 | 23501 |205807 |   8.2 |  22G| 1.387904e+07 | 1.468699e+07 |   5.82%
  23600 | 23601 |206061 |   8.2 |  22G| 1.387904e+07 | 1.468699e+07 |   5.82%
  23700 | 23701 |206303 |   8.1 |  22G| 1.387905e+07 | 1.468699e+07 |   5.82%
  23800 | 23801 |206539 |   8.1 |  22G| 1.387905e+07 | 1.468699e+07 |   5.82%
  23900 | 23901 |206777 |   8.1 |  22G| 1.387905e+07 | 1.468699e+07 |   5.82%
  24000 | 24001 |207010 |   8.1 |  22G| 1.387905e+07 | 1.468699e+07 |   5.82%
  24100 | 24101 |207256 |   8.0 |  22G| 1.387906e+07 | 1.468699e+07 |   5.82%
  24200 | 24201 |207500 |   8.0 |  22G| 1.387907e+07 | 1.468699e+07 |   5.82%
  24300 | 24301 |207741 |   8.0 |  22G| 1.387908e+07 | 1.468699e+07 |   5.82%
  24400 | 24401 |207983 |   8.0 |  23G| 1.387909e+07 | 1.468699e+07 |   5.82%
  24500 | 24501 |208231 |   8.0 |  23G| 1.387911e+07 | 1.468699e+07 |   5.82%
  24600 | 24601 |208473 |   7.9 |  23G| 1.387913e+07 | 1.468699e+07 |   5.82%
  24700 | 24701 |208719 |   7.9 |  23G| 1.387914e+07 | 1.468699e+07 |   5.82%
  24800 | 24801 |208953 |   7.9 |  23G| 1.387914e+07 | 1.468699e+07 |   5.82%
  24900 | 24901 |209196 |   7.9 |  23G| 1.387914e+07 | 1.468699e+07 |   5.82%
  node  | left  |LP iter|LP it/n| mem |  dualbound   | primalbound  |  gap   
  25000 | 25001 |209443 |   7.8 |  23G| 1.387914e+07 | 1.468699e+07 |   5.82%
  25100 | 25101 |209684 |   7.8 |  23G| 1.387914e+07 | 1.468699e+07 |   5.82%
  25200 | 25201 |209919 |   7.8 |  23G| 1.387914e+07 | 1.468699e+07 |   5.82%
  25300 | 25301 |210161 |   7.8 |  23G| 1.387914e+07 | 1.468699e+07 |   5.82%
  25400 | 25401 |210399 |   7.8 |  23G| 1.387915e+07 | 1.468699e+07 |   5.82%
  25500 | 25501 |210638 |   7.7 |  23G| 1.387915e+07 | 1.468699e+07 |   5.82%
  25600 | 25601 |210878 |   7.7 |  23G| 1.387915e+07 | 1.468699e+07 |   5.82%
  25700 | 25701 |211119 |   7.7 |  23G| 1.387915e+07 | 1.468699e+07 |   5.82%
  25800 | 25801 |211358 |   7.7 |  23G| 1.387915e+07 | 1.468699e+07 |   5.82%
  25900 | 25901 |211599 |   7.7 |  23G| 1.387915e+07 | 1.468699e+07 |   5.82%
  26000 | 26001 |211844 |   7.6 |  23G| 1.387915e+07 | 1.468699e+07 |   5.82%
  26100 | 26101 |212079 |   7.6 |  23G| 1.387915e+07 | 1.468699e+07 |   5.82%
  26200 | 26201 |212322 |   7.6 |  25G| 1.387915e+07 | 1.468699e+07 |   5.82%
  26300 | 26301 |212558 |   7.6 |  26G| 1.387916e+07 | 1.468699e+07 |   5.82%
  26400 | 26401 |212803 |   7.6 |  26G| 1.387916e+07 | 1.468699e+07 |   5.82%
  node  | left  |LP iter|LP it/n| mem |  dualbound   | primalbound  |  gap   
  26500 | 26501 |213037 |   7.5 |  26G| 1.387916e+07 | 1.468699e+07 |   5.82%
  26600 | 26601 |213279 |   7.5 |  26G| 1.387917e+07 | 1.468699e+07 |   5.82%
  26700 | 26701 |213522 |   7.5 |  26G| 1.387917e+07 | 1.468699e+07 |   5.82%
  26800 | 26801 |213761 |   7.5 |  26G| 1.387917e+07 | 1.468699e+07 |   5.82%
  26900 | 26901 |214002 |   7.5 |  26G| 1.387917e+07 | 1.468699e+07 |   5.82%
  27000 | 27001 |214239 |   7.4 |  26G| 1.387917e+07 | 1.468699e+07 |   5.82%
  27100 | 27101 |214484 |   7.4 |  26G| 1.387917e+07 | 1.468699e+07 |   5.82%
  27200 | 27201 |214727 |   7.4 |  26G| 1.387917e+07 | 1.468699e+07 |   5.82%
  27300 | 27301 |214965 |   7.4 |  26G| 1.387917e+07 | 1.468699e+07 |   5.82%
  27400 | 27401 |215205 |   7.4 |  26G| 1.387918e+07 | 1.468699e+07 |   5.82%
  27500 | 27501 |215442 |   7.4 |  26G| 1.387918e+07 | 1.468699e+07 |   5.82%
  27600 | 27601 |215685 |   7.3 |  26G| 1.387918e+07 | 1.468699e+07 |   5.82%
  27700 | 27701 |215922 |   7.3 |  26G| 1.387918e+07 | 1.468699e+07 |   5.82%
  27800 | 27801 |216160 |   7.3 |  26G| 1.387919e+07 | 1.468699e+07 |   5.82%
  27900 | 27901 |216399 |   7.3 |  26G| 1.387919e+07 | 1.468699e+07 |   5.82%
  node  | left  |LP iter|LP it/n| mem |  dualbound   | primalbound  |  gap   
  28000 | 28001 |216642 |   7.3 |  26G| 1.387919e+07 | 1.468699e+07 |   5.82%
  28100 | 28101 |216882 |   7.2 |  26G| 1.387919e+07 | 1.468699e+07 |   5.82%
  28200 | 28201 |217122 |   7.2 |  27G| 1.387919e+07 | 1.468699e+07 |   5.82%
  28300 | 28301 |217372 |   7.2 |  27G| 1.387919e+07 | 1.468699e+07 |   5.82%
  28400 | 28401 |217609 |   7.2 |  27G| 1.387919e+07 | 1.468699e+07 |   5.82%
  28500 | 28501 |217844 |   7.2 |  27G| 1.387919e+07 | 1.468699e+07 |   5.82%
  28600 | 28601 |218081 |   7.2 |  27G| 1.387919e+07 | 1.468699e+07 |   5.82%
  28700 | 28701 |218303 |   7.1 |  27G| 1.387919e+07 | 1.468699e+07 |   5.82%
  28800 | 28801 |218538 |   7.1 |  27G| 1.387920e+07 | 1.468699e+07 |   5.82%
  28900 | 28901 |218776 |   7.1 |  27G| 1.387920e+07 | 1.468699e+07 |   5.82%
  29000 | 29001 |219013 |   7.1 |  27G| 1.387920e+07 | 1.468699e+07 |   5.82%
  29100 | 29101 |219242 |   7.1 |  27G| 1.387920e+07 | 1.468699e+07 |   5.82%
  29200 | 29201 |219480 |   7.1 |  27G| 1.387920e+07 | 1.468699e+07 |   5.82%
  29300 | 29301 |219710 |   7.0 |  27G| 1.387920e+07 | 1.468699e+07 |   5.82%
  29400 | 29401 |219942 |   7.0 |  27G| 1.387921e+07 | 1.468699e+07 |   5.82%
  node  | left  |LP iter|LP it/n| mem |  dualbound   | primalbound  |  gap   
  29500 | 29501 |220169 |   7.0 |  27G| 1.387921e+07 | 1.468699e+07 |   5.82%
  29600 | 29601 |220390 |   7.0 |  27G| 1.387921e+07 | 1.468699e+07 |   5.82%
  29700 | 29701 |220620 |   7.0 |  27G| 1.387921e+07 | 1.468699e+07 |   5.82%
  29800 | 29801 |220841 |   7.0 |  27G| 1.387921e+07 | 1.468699e+07 |   5.82%
  29900 | 29901 |221074 |   6.9 |  27G| 1.387921e+07 | 1.468699e+07 |   5.82%
  30000 | 30001 |221291 |   6.9 |  27G| 1.387921e+07 | 1.468699e+07 |   5.82%
  30100 | 30101 |221517 |   6.9 |  28G| 1.387922e+07 | 1.468699e+07 |   5.82%
  30200 | 30201 |221742 |   6.9 |  28G| 1.387922e+07 | 1.468699e+07 |   5.82%
  30300 | 30301 |221974 |   6.9 |  28G| 1.387922e+07 | 1.468699e+07 |   5.82%
  30400 | 30401 |222209 |   6.9 |  28G| 1.387922e+07 | 1.468699e+07 |   5.82%
  30500 | 30501 |222433 |   6.9 |  28G| 1.387922e+07 | 1.468699e+07 |   5.82%
  30600 | 30601 |222671 |   6.8 |  28G| 1.387922e+07 | 1.468699e+07 |   5.82%
  30700 | 30701 |222902 |   6.8 |  28G| 1.387922e+07 | 1.468699e+07 |   5.82%
  30800 | 30801 |223137 |   6.8 |  28G| 1.387923e+07 | 1.468699e+07 |   5.82%
  30900 | 30901 |223365 |   6.8 |  28G| 1.387923e+07 | 1.468699e+07 |   5.82%
  node  | left  |LP iter|LP it/n| mem |  dualbound   | primalbound  |  gap   
  31000 | 31001 |223599 |   6.8 |  28G| 1.387923e+07 | 1.468699e+07 |   5.82%
  31100 | 31101 |223823 |   6.8 |  28G| 1.387924e+07 | 1.468699e+07 |   5.82%
  31200 | 31201 |224036 |   6.8 |  28G| 1.387924e+07 | 1.468699e+07 |   5.82%
  31300 | 31301 |224262 |   6.7 |  28G| 1.387924e+07 | 1.468699e+07 |   5.82%
  31400 | 31401 |224484 |   6.7 |  28G| 1.387924e+07 | 1.468699e+07 |   5.82%
  31500 | 31501 |224721 |   6.7 |  31G| 1.387925e+07 | 1.468699e+07 |   5.82%
  31600 | 31601 |224940 |   6.7 |  31G| 1.387925e+07 | 1.468699e+07 |   5.82%
  31700 | 31701 |225174 |   6.7 |  31G| 1.387925e+07 | 1.468699e+07 |   5.82%
  31800 | 31801 |225409 |   6.7 |  31G| 1.387925e+07 | 1.468699e+07 |   5.82%
  31900 | 31901 |225635 |   6.7 |  31G| 1.387925e+07 | 1.468699e+07 |   5.82%
  32000 | 32001 |225865 |   6.6 |  31G| 1.387925e+07 | 1.468699e+07 |   5.82%
  32100 | 32101 |226096 |   6.6 |  31G| 1.387925e+07 | 1.468699e+07 |   5.82%
  32200 | 32201 |226341 |   6.6 |  31G| 1.387925e+07 | 1.468699e+07 |   5.82%
  32300 | 32301 |226568 |   6.6 |  31G| 1.387925e+07 | 1.468699e+07 |   5.82%
  32400 | 32401 |226809 |   6.6 |  31G| 1.387926e+07 | 1.468699e+07 |   5.82%
  node  | left  |LP iter|LP it/n| mem |  dualbound   | primalbound  |  gap   
  32500 | 32501 |227043 |   6.6 |  31G| 1.387926e+07 | 1.468699e+07 |   5.82%
  32600 | 32601 |227284 |   6.6 |  31G| 1.387926e+07 | 1.468699e+07 |   5.82%
  32700 | 32701 |227513 |   6.6 |  31G| 1.387926e+07 | 1.468699e+07 |   5.82%
  32800 | 32801 |227754 |   6.5 |  31G| 1.387926e+07 | 1.468699e+07 |   5.82%
  32900 | 32901 |227996 |   6.5 |  31G| 1.387926e+07 | 1.468699e+07 |   5.82%
  33000 | 33001 |228244 |   6.5 |  31G| 1.387926e+07 | 1.468699e+07 |   5.82%
  33100 | 33101 |228481 |   6.5 |  32G| 1.387926e+07 | 1.468699e+07 |   5.82%
  33200 | 33201 |228720 |   6.5 |  32G| 1.387926e+07 | 1.468699e+07 |   5.82%
  33300 | 33301 |228970 |   6.5 |  32G| 1.387926e+07 | 1.468699e+07 |   5.82%
  33400 | 33401 |229207 |   6.5 |  32G| 1.387927e+07 | 1.468699e+07 |   5.82%
  33500 | 33501 |229447 |   6.5 |  32G| 1.387927e+07 | 1.468699e+07 |   5.82%
  33600 | 33601 |229678 |   6.4 |  32G| 1.387927e+07 | 1.468699e+07 |   5.82%
  33700 | 33701 |229912 |   6.4 |  32G| 1.387927e+07 | 1.468699e+07 |   5.82%
  33800 | 33801 |230145 |   6.4 |  32G| 1.387928e+07 | 1.468699e+07 |   5.82%
  33900 | 33901 |230376 |   6.4 |  32G| 1.387928e+07 | 1.468699e+07 |   5.82%
  node  | left  |LP iter|LP it/n| mem |  dualbound   | primalbound  |  gap   
  34000 | 34001 |230612 |   6.4 |  32G| 1.387928e+07 | 1.468699e+07 |   5.82%
  34100 | 34101 |230841 |   6.4 |  32G| 1.387928e+07 | 1.468699e+07 |   5.82%
